;; sequence(s): A250870
;; terms: 90 440 2002 8736 37130 155080 640002 2619056 10653370 43144920 174174002 701478976 2820264810 11324105960 45425564002 182089676496 729520967450 2921570654200 11696742970002 46818352939616
;; small program: loop(((loop(2 + (2 * (x + x)), y, 2) + x) + x) + x, 2 + x, 2)
;; fast program: loop2((2 * (x + x)) + y, 1 + ((y + y) + y), 2 + x, 1, 2 + 2) * 2
(set-logic UFNIA)
(declare-fun f1 (Int) Int)
(declare-fun g1 (Int Int) Int)
(declare-fun h1 () Int)
(declare-fun u1 (Int Int) Int)
(declare-fun v1 (Int Int) Int)
(declare-fun f0 (Int Int) Int)
(declare-fun g0 (Int) Int)
(declare-fun h0 () Int)
(declare-fun u0 (Int Int) Int)
(declare-fun v0 (Int) Int)
(declare-fun small (Int) Int)
(declare-fun f2 (Int Int) Int)
(declare-fun g2 (Int Int) Int)
(declare-fun h2 (Int) Int)
(declare-fun i2 () Int)
(declare-fun j2 () Int)
(declare-fun u2 (Int Int Int) Int)
(declare-fun v2 (Int Int Int) Int)
(declare-fun w2 (Int) Int)
(declare-fun fast (Int) Int)
(assert (forall ((x Int)) (= (f1 x) (+ 2 (* 2 (+ x x))))))
(assert (forall ((x Int) (y Int)) (= (g1 x y) y)))
(assert (= h1 2))
(assert (forall ((x Int) (y Int)) (= (u1 x y) (ite (<= x 0) y (f1 (u1 (- x 1) y))))))
(assert (forall ((x Int) (y Int)) (= (v1 x y) (u1 (g1 x y) h1))))
(assert (forall ((x Int) (y Int)) (= (f0 x y) (+ (+ (+ (v1 x y) x) x) x))))
(assert (forall ((x Int)) (= (g0 x) (+ 2 x))))
(assert (= h0 2))
(assert (forall ((x Int) (y Int)) (= (u0 x y) (ite (<= x 0) y (f0 (u0 (- x 1) y) x)))))
(assert (forall ((x Int)) (= (v0 x) (u0 (g0 x) h0))))
(assert (forall ((x Int)) (= (small x) (v0 x))))
(assert (forall ((x Int) (y Int)) (= (f2 x y) (+ (* 2 (+ x x)) y))))
(assert (forall ((x Int) (y Int)) (= (g2 x y) (+ 1 (+ (+ y y) y)))))
(assert (forall ((x Int)) (= (h2 x) (+ 2 x))))
(assert (= i2 1))
(assert (= j2 (+ 2 2)))
(assert (forall ((x Int) (y Int) (z Int)) (= (u2 x y z) (ite (<= x 0) y (f2 (u2 (- x 1) y z) (v2 (- x 1) y z))))))
(assert (forall ((x Int) (y Int) (z Int)) (= (v2 x y z) (ite (<= x 0) z (g2 (u2 (- x 1) y z) (v2 (- x 1) y z))))))
(assert (forall ((x Int)) (= (w2 x) (u2 (h2 x) i2 j2))))
(assert (forall ((x Int)) (= (fast x) (* (w2 x) 2))))
(assert (exists ((c Int)) (and (>= c 0) (not (= (small c) (fast c))))))
(check-sat)
